n = 100;
C = 458;
w = [433,265,761,299,222,518,496,734,724,187,70,360,873,290,778,592,307,327,394,165,85,392,207,770,276,359,60,764,883,30,795,189,619,763,457,791,231,444,395,649,399,36,792,150,546,15,305,862,42,618,855,324,211,462,971,274,861,135,340,714,274,536,12,831,385,834,500,211,548,404,649,610,383,628,823,958,186,375,390,621,153,726,713,280,290,874,110,861,663,489,131,471,748,353,238,237,411,165,89,848];
p = [433,265,761,299,222,518,496,734,724,187,70,360,873,290,778,592,307,327,394,165,85,392,207,770,276,359,60,764,883,30,795,189,619,763,457,791,231,444,395,649,399,36,792,150,546,15,305,862,42,618,855,324,211,462,971,274,861,135,340,714,274,536,12,831,385,834,500,211,548,404,649,610,383,628,823,958,186,375,390,621,153,726,713,280,290,874,110,861,663,489,131,471,748,353,238,237,411,165,89,848];
